%SETS
JOBS     = 1..50;
MACHINES = 1..25;
SPEED    = 3;

time        = array3d(JOBS,MACHINES,1..SPEED,[26, 6, 4, 4, 1, 1, 74, 18, 13, 19, 4, 3, 13, 3, 2, 7, 1, 1, 38, 9, 6, 15, 3, 2, 21, 5, 3, 1, 1, 1, 24, 6, 4, 24, 6, 4, 24, 6, 4, 74, 18, 13, 29, 7, 5, 11, 2, 2, 14, 3, 2, 30, 7, 5, 1, 1, 1, 28, 6, 5, 28, 7, 5, 6, 1, 1, 3, 1, 1, 9, 2, 1, 11, 2, 2, 21, 5, 3, 14, 3, 2, 115, 28, 20, 2, 1, 1, 6, 1, 1, 4, 1, 1, 27, 6, 4, 7, 1, 1, 16, 3, 2, 7, 1, 1, 4, 1, 1, 3, 1, 1, 27, 6, 4, 3, 1, 1, 5, 1, 1, 11, 2, 2, 44, 10, 8, 2, 1, 1, 47, 11, 8, 2, 1, 1, 97, 23, 17, 16, 4, 2, 97, 23, 17, 24, 5, 4, 34, 8, 6, 1, 1, 1, 8, 2, 1, 3, 1, 1, 9, 2, 1, 3, 1, 1, 9, 2, 1, 13, 3, 2, 1, 1, 1, 30, 7, 5, 21, 5, 3, 7, 1, 1, 19, 4, 3, 2, 1, 1, 22, 5, 3, 68, 16, 12, 9, 2, 1, 28, 6, 5, 3, 1, 1, 32, 7, 5, 8, 2, 1, 5, 1, 1, 22, 5, 4, 1, 1, 1, 45, 11, 8, 1, 1, 1, 29, 7, 5, 8, 1, 1, 34, 8, 6, 84, 20, 15, 7, 1, 1, 22, 5, 3, 23, 5, 4, 21, 5, 3, 6, 1, 1, 78, 19, 14, 15, 3, 2, 48, 11, 8, 31, 7, 5, 9, 2, 1, 43, 10, 7, 13, 3, 2, 55, 13, 9, 22, 5, 4, 55, 13, 9, 30, 7, 5, 33, 8, 6, 18, 4, 3, 80, 19, 14, 26, 6, 4, 14, 3, 2, 24, 5, 4, 1, 1, 1, 9, 2, 1, 27, 6, 5, 8, 2, 1, 24, 6, 4, 14, 3, 2, 3, 1, 1, 9, 2, 1, 21, 5, 3, 23, 5, 4, 22, 5, 3, 27, 6, 4, 27, 6, 4, 14, 3, 2, 58, 14, 10, 11, 2, 2, 14, 3, 2, 57, 14, 10, 42, 10, 7, 31, 7, 5, 2, 1, 1, 65, 15, 11, 32, 7, 5, 175, 42, 31, 4, 1, 1, 52, 12, 9, 4, 1, 1, 24, 6, 4, 3, 1, 1, 48, 11, 8, 42, 10, 7, 21, 5, 3, 13, 3, 2, 1, 1, 1, 30, 7, 5, 15, 3, 2, 33, 8, 5, 52, 12, 9, 96, 23, 17, 50, 12, 9, 1, 1, 1, 11, 2, 2, 33, 8, 6, 4, 1, 1, 19, 4, 3, 1, 1, 1, 5, 1, 1, 1, 1, 1, 40, 10, 7, 6, 1, 1, 10, 2, 1, 68, 16, 12, 31, 7, 5, 1, 1, 1, 4, 1, 1, 25, 6, 4, 22, 5, 4, 7, 1, 1, 70, 17, 12, 24, 6, 4, 19, 4, 3, 23, 5, 4, 33, 8, 6, 9, 2, 1, 13, 3, 2, 6, 1, 1, 5, 1, 1, 74, 18, 13, 34, 8, 6, 17, 4, 3, 6, 1, 1, 7, 1, 1, 1, 1, 1, 14, 3, 2, 9, 2, 1, 30, 7, 5, 12, 3, 2, 5, 1, 1, 1, 1, 1, 1, 1, 1, 29, 7, 5, 15, 3, 2, 19, 4, 3, 58, 14, 10, 120, 29, 21, 6, 1, 1, 28, 6, 5, 7, 1, 1, 1, 1, 1, 36, 9, 6, 9, 2, 1, 12, 3, 2, 22, 5, 4, 46, 11, 8, 25, 6, 4, 53, 13, 9, 8, 2, 1, 41, 10, 7, 5, 1, 1, 79, 19, 14, 30, 7, 5, 6, 1, 1, 76, 18, 13, 33, 8, 6, 7, 1, 1, 6, 1, 1, 18, 4, 3, 1, 1, 1, 6, 1, 1, 14, 3, 2, 12, 2, 2, 16, 3, 2, 8, 2, 1, 22, 5, 4, 51, 12, 9, 3, 1, 1, 18, 4, 3, 3, 1, 1, 32, 7, 5, 13, 3, 2, 21, 5, 3, 5, 1, 1, 4, 1, 1, 17, 4, 3, 11, 2, 2, 72, 17, 13, 37, 9, 6, 35, 8, 6, 60, 14, 10, 2, 1, 1, 20, 5, 3, 22, 5, 4, 84, 20, 15, 8, 2, 1, 7, 1, 1, 2, 1, 1, 1, 1, 1, 68, 16, 12, 28, 7, 5, 39, 9, 7, 8, 2, 1, 22, 5, 4, 1, 1, 1, 17, 4, 3, 98, 24, 17, 54, 13, 9, 10, 2, 1, 84, 20, 15, 6, 1, 1, 77, 18, 13, 73, 17, 13, 41, 10, 7, 25, 6, 4, 53, 13, 9, 8, 2, 1, 48, 11, 8, 24, 6, 4, 1, 1, 1, 11, 2, 1, 4, 1, 1, 103, 25, 18, 16, 4, 3, 17, 4, 3, 26, 6, 4, 11, 2, 2, 3, 1, 1, 44, 10, 8, 5, 1, 1, 18, 4, 3, 6, 1, 1, 2, 1, 1, 51, 12, 9, 93, 22, 16, 83, 20, 15, 61, 15, 11, 38, 9, 6, 10, 2, 1, 2, 1, 1, 13, 3, 2, 6, 1, 1, 3, 1, 1, 1, 1, 1, 33, 8, 6, 1, 1, 1, 38, 9, 6, 4, 1, 1, 2, 1, 1, 2, 1, 1, 28, 7, 5, 7, 1, 1, 14, 3, 2, 21, 5, 3, 50, 12, 9, 33, 8, 6, 8, 1, 1, 3, 1, 1, 1, 1, 1, 9, 2, 1, 7, 1, 1, 15, 3, 2, 29, 7, 5, 30, 7, 5, 8, 2, 1, 12, 3, 2, 5, 1, 1, 40, 9, 7, 1, 1, 1, 30, 7, 5, 39, 9, 7, 38, 9, 6, 7, 1, 1, 12, 2, 2, 22, 5, 4, 8, 2, 1, 11, 2, 2, 5, 1, 1, 15, 3, 2, 1, 1, 1, 41, 10, 7, 2, 1, 1, 18, 4, 3, 9, 2, 1, 22, 5, 4, 82, 20, 14, 26, 6, 4, 1, 1, 1, 14, 3, 2, 18, 4, 3, 19, 4, 3, 29, 7, 5, 8, 2, 1, 3, 1, 1, 12, 3, 2, 81, 19, 14, 5, 1, 1, 60, 14, 10, 20, 4, 3, 15, 3, 2, 55, 13, 9, 15, 3, 2, 33, 8, 5, 13, 3, 2, 60, 14, 10, 30, 7, 5, 31, 7, 5, 10, 2, 1, 36, 8, 6, 26, 6, 4, 7, 1, 1, 4, 1, 1, 41, 10, 7, 82, 20, 14, 15, 3, 2, 23, 5, 4, 50, 12, 9, 15, 3, 2, 78, 19, 14, 22, 5, 3, 44, 10, 8, 61, 15, 11, 43, 10, 7, 4, 1, 1, 25, 6, 4, 13, 3, 2, 1, 1, 1, 14, 3, 2, 7, 1, 1, 48, 11, 8, 1, 1, 1, 82, 20, 14, 11, 2, 2, 11, 2, 2, 1, 1, 1, 5, 1, 1, 13, 3, 2, 68, 16, 12, 2, 1, 1, 75, 18, 13, 52, 12, 9, 15, 3, 2, 10, 2, 1, 6, 1, 1, 24, 6, 4, 1, 1, 1, 1, 1, 1, 14, 3, 2, 1, 1, 1, 7, 1, 1, 6, 1, 1, 7, 1, 1, 3, 1, 1, 1, 1, 1, 3, 1, 1, 24, 6, 4, 94, 23, 17, 120, 29, 21, 13, 3, 2, 4, 1, 1, 26, 6, 4, 17, 4, 3, 117, 28, 21, 1, 1, 1, 39, 9, 7, 8, 2, 1, 7, 1, 1, 28, 6, 5, 7, 1, 1, 28, 6, 5, 18, 4, 3, 14, 3, 2, 20, 5, 3, 8, 2, 1, 31, 7, 5, 13, 3, 2, 11, 2, 2, 45, 11, 8, 67, 16, 12, 1, 1, 1, 6, 1, 1, 11, 2, 1, 43, 10, 7, 109, 26, 19, 89, 22, 16, 60, 14, 10, 9, 2, 1, 124, 30, 22, 7, 1, 1, 2, 1, 1, 78, 19, 14, 6, 1, 1, 30, 7, 5, 1, 1, 1, 33, 8, 6, 55, 13, 9, 8, 2, 1, 12, 3, 2, 12, 2, 2, 35, 8, 6, 7, 1, 1, 4, 1, 1, 15, 3, 2, 9, 2, 1, 47, 11, 8, 7, 1, 1, 18, 4, 3, 73, 18, 13, 26, 6, 4, 52, 12, 9, 72, 17, 13, 35, 8, 6, 31, 7, 5, 89, 21, 16, 134, 32, 24, 15, 3, 2, 1, 1, 1, 8, 2, 1, 4, 1, 1, 13, 3, 2, 3, 1, 1, 23, 5, 4, 12, 3, 2, 58, 14, 10, 88, 21, 16, 20, 5, 3, 8, 2, 1, 23, 5, 4, 58, 14, 10, 13, 3, 2, 20, 5, 3, 8, 2, 1, 15, 3, 2, 13, 3, 2, 7, 1, 1, 18, 4, 3, 9, 2, 1, 12, 2, 2, 19, 4, 3, 35, 8, 6, 10, 2, 1, 66, 16, 12, 51, 12, 9, 1, 1, 1, 7, 1, 1, 15, 3, 2, 2, 1, 1, 11, 2, 1, 34, 8, 6, 29, 7, 5, 25, 6, 4, 32, 7, 5, 5, 1, 1, 10, 2, 1, 29, 7, 5, 54, 13, 9, 20, 4, 3, 8, 2, 1, 1, 1, 1, 32, 7, 5, 1, 1, 1, 12, 2, 2, 19, 4, 3, 66, 16, 11, 2, 1, 1, 13, 3, 2, 1, 1, 1, 10, 2, 1, 25, 6, 4, 8, 2, 1, 6, 1, 1, 3, 1, 1, 22, 5, 4, 30, 7, 5, 28, 7, 5, 76, 18, 13, 1, 1, 1, 26, 6, 4, 23, 5, 4, 22, 5, 4, 85, 20, 15, 1, 1, 1, 30, 7, 5, 43, 10, 7, 18, 4, 3, 10, 2, 1, 40, 9, 7, 2, 1, 1, 15, 3, 2, 18, 4, 3, 30, 7, 5, 2, 1, 1, 6, 1, 1, 13, 3, 2, 25, 6, 4, 56, 13, 10, 24, 6, 4, 3, 1, 1, 101, 24, 18, 53, 13, 9, 18, 4, 3, 66, 16, 11, 20, 4, 3, 66, 16, 11, 45, 11, 8, 89, 21, 16, 65, 15, 11, 1, 1, 1, 4, 1, 1, 12, 3, 2, 78, 19, 14, 9, 2, 1, 4, 1, 1, 56, 13, 10, 15, 3, 2, 61, 15, 11, 4, 1, 1, 28, 6, 5, 15, 3, 2, 2, 1, 1, 30, 7, 5, 7, 1, 1, 1, 1, 1, 1, 1, 1, 1, 1, 1, 61, 15, 11, 34, 8, 6, 59, 14, 10, 28, 7, 5, 19, 4, 3, 9, 2, 1, 160, 39, 28, 11, 2, 2, 16, 4, 2, 12, 3, 2, 100, 24, 18, 4, 1, 1, 10, 2, 1, 29, 7, 5, 1, 1, 1, 24, 5, 4, 16, 4, 3, 8, 2, 1, 7, 1, 1, 18, 4, 3, 11, 2, 2, 15, 3, 2, 10, 2, 1, 91, 22, 16, 3, 1, 1, 2, 1, 1, 10, 2, 1, 23, 5, 4, 27, 6, 5, 13, 3, 2, 187, 45, 33, 11, 2, 2, 33, 8, 5, 26, 6, 4, 43, 10, 7, 96, 23, 17, 57, 13, 10, 37, 9, 6, 31, 7, 5, 10, 2, 1, 4, 1, 1, 1, 1, 1, 7, 1, 1, 14, 3, 2, 19, 4, 3, 38, 9, 6, 82, 20, 14, 3, 1, 1, 2, 1, 1, 23, 5, 4, 35, 8, 6, 48, 11, 8, 71, 17, 12, 106, 25, 19, 13, 3, 2, 12, 3, 2, 4, 1, 1, 29, 7, 5, 27, 6, 4, 51, 12, 9, 2, 1, 1, 17, 4, 3, 22, 5, 4, 7, 1, 1, 4, 1, 1, 50, 12, 9, 1, 1, 1, 16, 4, 2, 3, 1, 1, 15, 3, 2, 101, 24, 18, 14, 3, 2, 50, 12, 9, 3, 1, 1, 8, 2, 1, 13, 3, 2, 13, 3, 2, 28, 7, 5, 10, 2, 1, 32, 7, 5, 26, 6, 4, 13, 3, 2, 14, 3, 2, 24, 6, 4, 1, 1, 1, 44, 10, 8, 27, 6, 4, 33, 8, 6, 19, 4, 3, 3, 1, 1, 13, 3, 2, 13, 3, 2, 10, 2, 1, 1, 1, 1, 34, 8, 6, 3, 1, 1, 24, 5, 4, 31, 7, 5, 26, 6, 4, 82, 20, 14, 2, 1, 1, 52, 12, 9, 1, 1, 1, 19, 4, 3, 13, 3, 2, 19, 4, 3, 11, 2, 2, 5, 1, 1, 1, 1, 1, 18, 4, 3, 47, 11, 8, 12, 2, 2, 6, 1, 1, 2, 1, 1, 2, 1, 1, 6, 1, 1, 2, 1, 1, 7, 1, 1, 1, 1, 1, 1, 1, 1, 50, 12, 9, 4, 1, 1, 21, 5, 3, 38, 9, 6, 15, 3, 2, 4, 1, 1, 5, 1, 1, 14, 3, 2, 19, 4, 3, 11, 2, 2, 39, 9, 7, 35, 8, 6, 67, 16, 12, 1, 1, 1, 58, 14, 10, 12, 3, 2, 54, 13, 9, 30, 7, 5, 113, 27, 20, 36, 9, 6, 11, 2, 2, 17, 4, 3, 12, 2, 2, 11, 2, 2, 7, 1, 1, 17, 4, 3, 29, 7, 5, 8, 2, 1, 19, 4, 3, 3, 1, 1, 4, 1, 1, 1, 1, 1, 91, 22, 16, 1, 1, 1, 5, 1, 1, 24, 6, 4, 2, 1, 1, 55, 13, 9, 32, 8, 5, 87, 21, 15, 18, 4, 3, 9, 2, 1, 20, 5, 3, 69, 16, 12, 19, 4, 3, 8, 1, 1, 54, 13, 9, 12, 2, 2, 1, 1, 1, 7, 1, 1, 9, 2, 1, 50, 12, 9, 15, 3, 2, 15, 3, 2, 10, 2, 1, 55, 13, 9, 75, 18, 13, 124, 30, 22, 12, 2, 2, 87, 21, 15, 40, 9, 7, 29, 7, 5, 7, 1, 1, 6, 1, 1, 4, 1, 1, 66, 16, 11, 9, 2, 1, 15, 3, 2, 17, 4, 3, 38, 9, 7, 48, 11, 8, 3, 1, 1, 14, 3, 2, 47, 11, 8, 44, 10, 7, 2, 1, 1, 4, 1, 1, 9, 2, 1, 2, 1, 1, 14, 3, 2, 2, 1, 1, 21, 5, 3, 7, 1, 1, 23, 5, 4, 3, 1, 1, 96, 23, 17, 69, 17, 12, 12, 3, 2, 7, 1, 1, 7, 1, 1, 17, 4, 3, 1, 1, 1, 26, 6, 4, 13, 3, 2, 12, 3, 2, 42, 10, 7, 31, 7, 5, 79, 19, 14, 11, 2, 2, 58, 14, 10, 38, 9, 6, 11, 2, 2, 25, 6, 4, 8, 2, 1, 53, 13, 9, 3, 1, 1, 6, 1, 1, 5, 1, 1, 13, 3, 2, 35, 8, 6, 19, 4, 3, 17, 4, 3, 1, 1, 1, 14, 3, 2, 1, 1, 1, 6, 1, 1, 69, 17, 12, 6, 1, 1, 50, 12, 9, 42, 10, 7, 4, 1, 1, 24, 5, 4, 3, 1, 1, 33, 8, 6, 26, 6, 4, 43, 10, 7, 16, 4, 3, 63, 15, 11, 1, 1, 1, 8, 2, 1, 32, 7, 5, 14, 3, 2, 4, 1, 1, 2, 1, 1, 43, 10, 7, 16, 4, 2, 55, 13, 9, 34, 8, 6, 13, 3, 2, 12, 2, 2, 18, 4, 3, 56, 13, 10, 34, 8, 6, 1, 1, 1, 30, 7, 5, 65, 15, 11, 32, 7, 5, 5, 1, 1, 17, 4, 3, 3, 1, 1, 11, 2, 2, 71, 17, 12, 66, 16, 11, 8, 2, 1, 10, 2, 1, 23, 5, 4, 85, 20, 15, 4, 1, 1, 7, 1, 1, 53, 13, 9, 17, 4, 3, 59, 14, 10, 5, 1, 1, 19, 4, 3, 10, 2, 1, 9, 2, 1, 15, 3, 2, 14, 3, 2, 11, 2, 2, 63, 15, 11, 34, 8, 6, 33, 8, 6, 8, 2, 1, 22, 5, 4, 39, 9, 7, 41, 10, 7, 10, 2, 1, 38, 9, 6, 34, 8, 6, 3, 1, 1, 52, 12, 9, 15, 3, 2, 17, 4, 3, 15, 3, 2, 21, 5, 3, 25, 6, 4, 17, 4, 3, 52, 12, 9, 25, 6, 4, 13, 3, 2, 13, 3, 2, 43, 10, 7, 11, 2, 1, 6, 1, 1, 1, 1, 1, 54, 13, 9, 64, 15, 11, 3, 1, 1, 10, 2, 1, 4, 1, 1, 3, 1, 1, 59, 14, 10, 1, 1, 1, 101, 24, 18, 2, 1, 1, 51, 12, 9, 21, 5, 3, 11, 2, 2, 10, 2, 1, 36, 8, 6, 9, 2, 1, 27, 6, 4, 18, 4, 3, 17, 4, 3, 59, 14, 10, 20, 5, 3, 45, 11, 8, 33, 8, 6, 1, 1, 1, 38, 9, 6, 6, 1, 1, 60, 14, 10, 1, 1, 1, 10, 2, 1, 2, 1, 1, 16, 4, 3, 44, 10, 7, 9, 2, 1, 4, 1, 1, 10, 2, 1, 43, 10, 7, 3, 1, 1, 6, 1, 1, 1, 1, 1, 31, 7, 5, 13, 3, 2, 9, 2, 1, 32, 8, 5, 10, 2, 1, 33, 8, 6, 43, 10, 7, 6, 1, 1, 94, 23, 16, 4, 1, 1, 8, 2, 1, 5, 1, 1, 10, 2, 1, 16, 4, 3, 19, 4, 3, 49, 12, 8, 56, 13, 10, 6, 1, 1, 25, 6, 4, 3, 1, 1, 15, 3, 2, 10, 2, 1, 9, 2, 1, 17, 4, 3, 33, 8, 6, 1, 1, 1, 54, 13, 9, 34, 8, 6, 5, 1, 1, 72, 17, 13, 18, 4, 3, 221, 54, 39, 5, 1, 1, 19, 4, 3, 8, 2, 1, 9, 2, 1, 23, 5, 4, 65, 16, 11, 42, 10, 7, 33, 8, 5, 21, 5, 3, 66, 16, 11, 17, 4, 3, 53, 13, 9, 46, 11, 8, 6, 1, 1, 38, 9, 6, 1, 1, 1, 10, 2, 1, 6, 1, 1, 18, 4, 3, 34, 8, 6, 2, 1, 1, 18, 4, 3, 72, 17, 12, 6, 1, 1, 29, 7, 5, 23, 5, 4, 1, 1, 1, 16, 4, 3, 31, 7, 5, 1, 1, 1, 54, 13, 9, 18, 4, 3, 1, 1, 1, 6, 1, 1, 79, 19, 14, 22, 5, 4, 2, 1, 1, 8, 2, 1, 15, 3, 2, 1, 1, 1, 13, 3, 2, 17, 4, 3, 7, 1, 1, 22, 5, 4, 36, 8, 6, 6, 1, 1, 25, 6, 4, 26, 6, 4, 76, 18, 13, 38, 9, 7, 48, 11, 8, 17, 4, 3, 5, 1, 1, 141, 34, 25, 3, 1, 1, 16, 4, 2, 1, 1, 1, 74, 18, 13, 86, 21, 15, 32, 8, 5, 11, 2, 2, 7, 1, 1, 7, 1, 1, 3, 1, 1, 19, 4, 3, 3, 1, 1, 9, 2, 1, 25, 6, 4, 33, 8, 6, 1, 1, 1, 14, 3, 2, 27, 6, 4, 49, 12, 8, 16, 4, 3, 90, 22, 16, 7, 1, 1, 1, 1, 1, 17, 4, 3, 7, 1, 1, 44, 11, 8, 6, 1, 1, 9, 2, 1, 40, 9, 7, 32, 7, 5, 21, 5, 3, 31, 7, 5, 14, 3, 2, 1, 1, 1, 1, 1, 1, 18, 4, 3, 2, 1, 1, 1, 1, 1, 87, 21, 15, 50, 12, 9, 4, 1, 1, 1, 1, 1, 73, 18, 13, 8, 2, 1, 5, 1, 1, 30, 7, 5, 2, 1, 1, 7, 1, 1, 95, 23, 17, 26, 6, 4, 19, 4, 3, 13, 3, 2, 38, 9, 6, 3, 1, 1, 88, 21, 15, 51, 12, 9, 24, 6, 4, 1, 1, 1, 31, 7, 5, 63, 15, 11, 19, 4, 3, 11, 2, 2, 3, 1, 1, 36, 8, 6, 55, 13, 10, 2, 1, 1, 36, 9, 6, 1, 1, 1, 88, 21, 15, 24, 6, 4, 20, 5, 3, 9, 2, 1, 68, 16, 12, 7, 1, 1, 45, 11, 8, 108, 26, 19, 39, 9, 7, 18, 4, 3, 1, 1, 1, 16, 4, 2, 14, 3, 2, 5, 1, 1, 14, 3, 2, 11, 2, 2, 4, 1, 1, 15, 3, 2, 7, 1, 1, 19, 4, 3, 1, 1, 1, 61, 15, 11, 43, 10, 7, 20, 5, 3, 49, 12, 8, 84, 20, 15, 3, 1, 1, 25, 6, 4, 160, 39, 28, 114, 27, 20, 23, 5, 4, 3, 1, 1, 22, 5, 4, 1, 1, 1, 5, 1, 1, 80, 19, 14, 10, 2, 1, 26, 6, 4, 8, 2, 1, 76, 18, 13, 33, 8, 6, 10, 2, 1, 40, 9, 7, 2, 1, 1, 12, 3, 2, 6, 1, 1, 29, 7, 5, 2, 1, 1, 13, 3, 2, 8, 2, 1, 18, 4, 3, 11, 2, 2, 31, 7, 5, 1, 1, 1, 26, 6, 4, 6, 1, 1, 8, 1, 1, 41, 10, 7, 80, 19, 14, 9, 2, 1, 45, 11, 8, 2, 1, 1, 26, 6, 4, 35, 8, 6, 4, 1, 1, 14, 3, 2, 57, 14, 10, 2, 1, 1, 1, 1, 1, 23, 5, 4, 14, 3, 2, 41, 10, 7, 66, 16, 11, 9, 2, 1, 12, 3, 2, 17, 4, 3, 22, 5, 4, 106, 26, 19, 30, 7, 5, 12, 3, 2, 7, 1, 1, 74, 18, 13, 3, 1, 1, 32, 8, 5, 67, 16, 12, 28, 6, 5, 14, 3, 2, 5, 1, 1, 11, 2, 2, 31, 7, 5, 27, 6, 4, 68, 16, 12, 52, 12, 9, 43, 10, 7, 62, 15, 11, 8, 2, 1, 11, 2, 2, 12, 3, 2, 21, 5, 3, 28, 6, 5, 8, 2, 1, 1, 1, 1, 13, 3, 2, 9, 2, 1, 73, 18, 13, 56, 13, 10, 50, 12, 9, 27, 6, 4, 10, 2, 1, 20, 5, 3, 43, 10, 7, 2, 1, 1, 41, 10, 7, 1, 1, 1, 43, 10, 7, 42, 10, 7, 1, 1, 1, 25, 6, 4, 18, 4, 3, 4, 1, 1, 4, 1, 1, 38, 9, 6, 21, 5, 3, 105, 25, 18, 104, 25, 18, 127, 31, 22, 3, 1, 1, 72, 17, 12, 7, 1, 1, 15, 3, 2, 36, 8, 6, 5, 1, 1, 21, 5, 3, 5, 1, 1, 2, 1, 1, 3, 1, 1, 11, 2, 2, 1, 1, 1, 14, 3, 2, 28, 6, 5, 13, 3, 2, 2, 1, 1, 1, 1, 1, 8, 2, 1, 4, 1, 1, 86, 21, 15, 4, 1, 1, 42, 10, 7, 22, 5, 4, 21, 5, 3, 18, 4, 3, 92, 22, 16, 11, 2, 2, 40, 9, 7, 20, 5, 3, 13, 3, 2, 80, 19, 14, 23, 5, 4, 3, 1, 1, 13, 3, 2, 39, 9, 7, 30, 7, 5, 64, 15, 11, 7, 1, 1, 36, 8, 6, 15, 3, 2, 22, 5, 3, 80, 19, 14, 100, 24, 18, 51, 12, 9, 11, 2, 2, 56, 13, 10, 26, 6, 4, 14, 3, 2, 1, 1, 1, 38, 9, 6, 18, 4, 3, 39, 9, 7]);
energy      = array3d(JOBS,MACHINES,1..SPEED,[77, 94, 96, 96, 99, 99, 47, 83, 87, 82, 96, 97, 87, 97, 98, 93, 99, 99, 68, 91, 94, 86, 97, 98, 81, 95, 97, 99, 99, 99, 78, 94, 96, 78, 94, 96, 78, 94, 96, 47, 83, 87, 74, 93, 95, 89, 98, 98, 86, 97, 98, 74, 93, 95, 99, 99, 99, 75, 94, 95, 75, 93, 95, 94, 99, 99, 97, 99, 99, 91, 98, 99, 89, 98, 98, 81, 95, 97, 86, 97, 98, 31, 75, 81, 98, 99, 99, 94, 99, 99, 96, 99, 99, 76, 94, 96, 93, 99, 99, 85, 97, 98, 93, 99, 99, 96, 99, 99, 97, 99, 99, 76, 94, 96, 97, 99, 99, 95, 99, 99, 89, 98, 98, 64, 90, 92, 98, 99, 99, 62, 89, 92, 98, 99, 99, 37, 79, 84, 85, 96, 98, 37, 79, 84, 78, 95, 96, 71, 92, 94, 99, 99, 99, 92, 98, 99, 97, 99, 99, 91, 98, 99, 97, 99, 99, 91, 98, 99, 87, 97, 98, 99, 99, 99, 74, 93, 95, 81, 95, 97, 93, 99, 99, 82, 96, 97, 98, 99, 99, 80, 95, 97, 50, 85, 88, 91, 98, 99, 75, 94, 95, 97, 99, 99, 72, 93, 95, 92, 98, 99, 95, 99, 99, 80, 95, 96, 99, 99, 99, 63, 89, 92, 99, 99, 99, 74, 93, 95, 92, 99, 99, 71, 92, 94, 43, 81, 86, 93, 99, 99, 80, 95, 97, 79, 95, 96, 81, 95, 97, 94, 99, 99, 45, 82, 86, 86, 97, 98, 61, 89, 92, 73, 93, 95, 91, 98, 99, 65, 90, 93, 87, 97, 98, 57, 87, 91, 80, 95, 96, 57, 87, 91, 74, 93, 95, 71, 92, 94, 83, 96, 97, 44, 82, 86, 77, 94, 96, 86, 97, 98, 78, 95, 96, 99, 99, 99, 91, 98, 99, 76, 94, 95, 92, 98, 99, 78, 94, 96, 86, 97, 98, 97, 99, 99, 91, 98, 99, 81, 95, 97, 79, 95, 96, 80, 95, 97, 76, 94, 96, 76, 94, 96, 86, 97, 98, 55, 86, 90, 89, 98, 98, 86, 97, 98, 56, 86, 90, 65, 90, 93, 73, 93, 95, 98, 99, 99, 52, 86, 89, 72, 93, 95, 17, 65, 73, 96, 99, 99, 59, 88, 91, 96, 99, 99, 78, 94, 96, 97, 99, 99, 61, 89, 92, 65, 90, 93, 81, 95, 97, 87, 97, 98, 99, 99, 99, 74, 93, 95, 86, 97, 98, 71, 92, 95, 59, 88, 91, 38, 79, 84, 60, 88, 91, 99, 99, 99, 89, 98, 98, 71, 92, 94, 96, 99, 99, 82, 96, 97, 99, 99, 99, 95, 99, 99, 99, 99, 99, 67, 90, 93, 94, 99, 99, 90, 98, 99, 50, 85, 88, 73, 93, 95, 99, 99, 99, 96, 99, 99, 77, 94, 96, 80, 95, 96, 93, 99, 99, 49, 84, 88, 78, 94, 96, 82, 96, 97, 79, 95, 96, 71, 92, 94, 91, 98, 99, 87, 97, 98, 94, 99, 99, 95, 99, 99, 47, 83, 87, 71, 92, 94, 84, 96, 97, 94, 99, 99, 93, 99, 99, 99, 99, 99, 86, 97, 98, 91, 98, 99, 74, 93, 95, 88, 97, 98, 95, 99, 99, 99, 99, 99, 99, 99, 99, 74, 93, 95, 86, 97, 98, 82, 96, 97, 55, 86, 90, 30, 74, 81, 94, 99, 99, 75, 94, 95, 93, 99, 99, 99, 99, 99, 69, 91, 94, 91, 98, 99, 88, 97, 98, 80, 95, 96, 63, 89, 92, 77, 94, 96, 58, 87, 91, 92, 98, 99, 66, 90, 93, 95, 99, 99, 45, 82, 86, 74, 93, 95, 94, 99, 99, 46, 83, 87, 71, 92, 94, 93, 99, 99, 94, 99, 99, 83, 96, 97, 99, 99, 99, 94, 99, 99, 86, 97, 98, 88, 98, 98, 85, 97, 98, 92, 98, 99, 80, 95, 96, 60, 88, 91, 97, 99, 99, 83, 96, 97, 97, 99, 99, 72, 93, 95, 87, 97, 98, 81, 95, 97, 95, 99, 99, 96, 99, 99, 84, 96, 97, 89, 98, 98, 48, 84, 87, 69, 91, 94, 70, 92, 94, 54, 86, 90, 98, 99, 99, 81, 95, 97, 80, 95, 96, 43, 81, 86, 92, 98, 99, 93, 99, 99, 98, 99, 99, 99, 99, 99, 50, 85, 88, 75, 93, 95, 67, 91, 93, 92, 98, 99, 80, 95, 96, 99, 99, 99, 84, 96, 97, 37, 78, 84, 58, 87, 91, 90, 98, 99, 43, 81, 86, 94, 99, 99, 46, 83, 87, 48, 84, 87, 66, 90, 93, 77, 94, 96, 58, 87, 91, 92, 98, 99, 61, 89, 92, 78, 94, 96, 99, 99, 99, 89, 98, 99, 96, 99, 99, 35, 77, 83, 85, 96, 97, 84, 96, 97, 77, 94, 96, 89, 98, 98, 97, 99, 99, 64, 90, 92, 95, 99, 99, 83, 96, 97, 94, 99, 99, 98, 99, 99, 60, 88, 91, 39, 80, 85, 43, 81, 86, 54, 86, 89, 68, 91, 94, 90, 98, 99, 98, 99, 99, 87, 97, 98, 94, 99, 99, 97, 99, 99, 99, 99, 99, 71, 92, 94, 99, 99, 99, 68, 91, 94, 96, 99, 99, 98, 99, 99, 98, 99, 99, 75, 93, 95, 93, 99, 99, 86, 97, 98, 81, 95, 97, 60, 88, 91, 71, 92, 94, 92, 99, 99, 97, 99, 99, 99, 99, 99, 91, 98, 99, 93, 99, 99, 86, 97, 98, 74, 93, 95, 74, 93, 95, 92, 98, 99, 88, 97, 98, 95, 99, 99, 67, 91, 93, 99, 99, 99, 74, 93, 95, 67, 91, 93, 68, 91, 94, 93, 99, 99, 88, 98, 98, 80, 95, 96, 92, 98, 99, 89, 98, 98, 95, 99, 99, 86, 97, 98, 99, 99, 99, 66, 90, 93, 98, 99, 99, 83, 96, 97, 91, 98, 99, 80, 95, 96, 44, 81, 86, 77, 94, 96, 99, 99, 99, 86, 97, 98, 83, 96, 97, 82, 96, 97, 74, 93, 95, 92, 98, 99, 97, 99, 99, 88, 97, 98, 44, 82, 86, 95, 99, 99, 54, 86, 90, 81, 96, 97, 86, 97, 98, 57, 87, 91, 86, 97, 98, 71, 92, 95, 87, 97, 98, 54, 86, 90, 74, 93, 95, 73, 93, 95, 90, 98, 99, 69, 92, 94, 77, 94, 96, 93, 99, 99, 96, 99, 99, 66, 90, 93, 44, 81, 86, 86, 97, 98, 79, 95, 96, 60, 88, 91, 86, 97, 98, 45, 82, 86, 80, 95, 97, 64, 90, 92, 54, 86, 89, 65, 90, 93, 96, 99, 99, 77, 94, 96, 87, 97, 98, 99, 99, 99, 86, 97, 98, 93, 99, 99, 61, 89, 92, 99, 99, 99, 44, 81, 86, 89, 98, 98, 89, 98, 98, 99, 99, 99, 95, 99, 99, 87, 97, 98, 50, 85, 88, 98, 99, 99, 47, 83, 87, 59, 88, 91, 86, 97, 98, 90, 98, 99, 94, 99, 99, 78, 94, 96, 99, 99, 99, 99, 99, 99, 86, 97, 98, 99, 99, 99, 93, 99, 99, 94, 99, 99, 93, 99, 99, 97, 99, 99, 99, 99, 99, 97, 99, 99, 78, 94, 96, 39, 79, 84, 30, 74, 81, 87, 97, 98, 96, 99, 99, 77, 94, 96, 84, 96, 97, 31, 75, 81, 99, 99, 99, 67, 91, 93, 92, 98, 99, 93, 99, 99, 75, 94, 95, 93, 99, 99, 75, 94, 95, 83, 96, 97, 86, 97, 98, 81, 95, 97, 92, 98, 99, 73, 93, 95, 87, 97, 98, 89, 98, 98, 63, 89, 92, 51, 85, 88, 99, 99, 99, 94, 99, 99, 89, 98, 99, 65, 90, 93, 33, 77, 82, 41, 80, 85, 54, 86, 90, 91, 98, 99, 28, 74, 80, 93, 99, 99, 98, 99, 99, 45, 82, 86, 94, 99, 99, 74, 93, 95, 99, 99, 99, 71, 92, 94, 57, 87, 91, 92, 98, 99, 88, 97, 98, 88, 98, 98, 70, 92, 94, 93, 99, 99, 96, 99, 99, 86, 97, 98, 91, 98, 99, 62, 89, 92, 93, 99, 99, 83, 96, 97, 48, 83, 87, 77, 94, 96, 59, 88, 91, 48, 84, 87, 70, 92, 94, 73, 93, 95, 41, 81, 85, 26, 72, 78, 86, 97, 98, 99, 99, 99, 92, 98, 99, 96, 99, 99, 87, 97, 98, 97, 99, 99, 79, 95, 96, 88, 97, 98, 55, 86, 90, 41, 81, 85, 81, 95, 97, 92, 98, 99, 79, 95, 96, 55, 86, 90, 87, 97, 98, 81, 95, 97, 92, 98, 99, 86, 97, 98, 87, 97, 98, 93, 99, 99, 83, 96, 97, 91, 98, 99, 88, 98, 98, 82, 96, 97, 70, 92, 94, 90, 98, 99, 51, 85, 88, 60, 88, 91, 99, 99, 99, 93, 99, 99, 86, 97, 98, 98, 99, 99, 89, 98, 99, 71, 92, 94, 74, 93, 95, 77, 94, 96, 72, 93, 95, 95, 99, 99, 90, 98, 99, 74, 93, 95, 58, 87, 91, 81, 96, 97, 92, 98, 99, 99, 99, 99, 72, 93, 95, 99, 99, 99, 88, 98, 98, 82, 96, 97, 51, 85, 89, 98, 99, 99, 87, 97, 98, 99, 99, 99, 90, 98, 99, 77, 94, 96, 92, 98, 99, 94, 99, 99, 97, 99, 99, 80, 95, 96, 74, 93, 95, 75, 93, 95, 46, 83, 87, 99, 99, 99, 77, 94, 96, 79, 95, 96, 80, 95, 96, 42, 81, 86, 99, 99, 99, 74, 93, 95, 65, 90, 93, 83, 96, 97, 90, 98, 99, 67, 91, 93, 98, 99, 99, 86, 97, 98, 83, 96, 97, 74, 93, 95, 98, 99, 99, 94, 99, 99, 87, 97, 98, 77, 94, 96, 57, 87, 90, 78, 94, 96, 97, 99, 99, 36, 78, 83, 58, 87, 91, 83, 96, 97, 51, 85, 89, 81, 96, 97, 51, 85, 89, 63, 89, 92, 41, 81, 85, 52, 86, 89, 99, 99, 99, 96, 99, 99, 88, 97, 98, 45, 82, 86, 91, 98, 99, 96, 99, 99, 57, 87, 90, 86, 97, 98, 54, 86, 89, 96, 99, 99, 75, 94, 95, 86, 97, 98, 98, 99, 99, 74, 93, 95, 93, 99, 99, 99, 99, 99, 99, 99, 99, 99, 99, 99, 54, 86, 89, 71, 92, 94, 55, 86, 90, 75, 93, 95, 82, 96, 97, 91, 98, 99, 20, 67, 75, 89, 98, 98, 85, 96, 98, 88, 97, 98, 36, 78, 83, 96, 99, 99, 90, 98, 99, 74, 93, 95, 99, 99, 99, 78, 95, 96, 85, 96, 97, 92, 98, 99, 93, 99, 99, 83, 96, 97, 89, 98, 98, 86, 97, 98, 90, 98, 99, 40, 80, 85, 97, 99, 99, 98, 99, 99, 90, 98, 99, 79, 95, 96, 76, 94, 95, 87, 97, 98, 15, 63, 71, 89, 98, 98, 71, 92, 95, 77, 94, 96, 65, 90, 93, 38, 79, 84, 56, 87, 90, 69, 91, 94, 73, 93, 95, 90, 98, 99, 96, 99, 99, 99, 99, 99, 93, 99, 99, 86, 97, 98, 82, 96, 97, 68, 91, 94, 44, 81, 86, 97, 99, 99, 98, 99, 99, 79, 95, 96, 70, 92, 94, 61, 89, 92, 49, 84, 88, 34, 77, 82, 87, 97, 98, 88, 97, 98, 96, 99, 99, 74, 93, 95, 76, 94, 96, 60, 88, 91, 98, 99, 99, 84, 96, 97, 80, 95, 96, 93, 99, 99, 96, 99, 99, 60, 88, 91, 99, 99, 99, 85, 96, 98, 97, 99, 99, 86, 97, 98, 36, 78, 83, 86, 97, 98, 60, 88, 91, 97, 99, 99, 92, 98, 99, 87, 97, 98, 87, 97, 98, 75, 93, 95, 90, 98, 99, 72, 93, 95, 77, 94, 96, 87, 97, 98, 86, 97, 98, 78, 94, 96, 99, 99, 99, 64, 90, 92, 76, 94, 96, 71, 92, 94, 82, 96, 97, 97, 99, 99, 87, 97, 98, 87, 97, 98, 90, 98, 99, 99, 99, 99, 71, 92, 94, 97, 99, 99, 78, 95, 96, 73, 93, 95, 77, 94, 96, 44, 81, 86, 98, 99, 99, 59, 88, 91, 99, 99, 99, 82, 96, 97, 87, 97, 98, 82, 96, 97, 89, 98, 98, 95, 99, 99, 99, 99, 99, 83, 96, 97, 62, 89, 92, 88, 98, 98, 94, 99, 99, 98, 99, 99, 98, 99, 99, 94, 99, 99, 98, 99, 99, 93, 99, 99, 99, 99, 99, 99, 99, 99, 60, 88, 91, 96, 99, 99, 81, 95, 97, 68, 91, 94, 86, 97, 98, 96, 99, 99, 95, 99, 99, 86, 97, 98, 82, 96, 97, 89, 98, 98, 67, 91, 93, 70, 92, 94, 51, 85, 88, 99, 99, 99, 55, 86, 90, 88, 97, 98, 58, 87, 91, 74, 93, 95, 32, 76, 81, 69, 91, 94, 89, 98, 98, 84, 96, 97, 88, 98, 98, 89, 98, 98, 93, 99, 99, 84, 96, 97, 74, 93, 95, 92, 98, 99, 82, 96, 97, 97, 99, 99, 96, 99, 99, 99, 99, 99, 40, 80, 85, 99, 99, 99, 95, 99, 99, 78, 94, 96, 98, 99, 99, 57, 87, 91, 72, 92, 95, 41, 81, 86, 83, 96, 97, 91, 98, 99, 81, 95, 97, 50, 85, 88, 82, 96, 97, 92, 99, 99, 58, 87, 91, 88, 98, 98, 99, 99, 99, 93, 99, 99, 91, 98, 99, 60, 88, 91, 86, 97, 98, 86, 97, 98, 90, 98, 99, 57, 87, 91, 47, 83, 87, 28, 74, 80, 88, 98, 98, 41, 81, 86, 67, 91, 93, 74, 93, 95, 93, 99, 99, 94, 99, 99, 96, 99, 99, 51, 85, 89, 91, 98, 99, 86, 97, 98, 84, 96, 97, 68, 91, 93, 61, 89, 92, 97, 99, 99, 86, 97, 98, 62, 89, 92, 64, 90, 93, 98, 99, 99, 96, 99, 99, 91, 98, 99, 98, 99, 99, 86, 97, 98, 98, 99, 99, 81, 95, 97, 93, 99, 99, 79, 95, 96, 97, 99, 99, 38, 79, 84, 50, 84, 88, 88, 97, 98, 93, 99, 99, 93, 99, 99, 84, 96, 97, 99, 99, 99, 77, 94, 96, 87, 97, 98, 88, 97, 98, 65, 90, 93, 73, 93, 95, 45, 82, 86, 89, 98, 98, 55, 86, 90, 68, 91, 94, 89, 98, 98, 77, 94, 96, 92, 98, 99, 58, 87, 91, 97, 99, 99, 94, 99, 99, 95, 99, 99, 87, 97, 98, 70, 92, 94, 82, 96, 97, 84, 96, 97, 99, 99, 99, 86, 97, 98, 99, 99, 99, 94, 99, 99, 50, 84, 88, 94, 99, 99, 60, 88, 91, 65, 90, 93, 96, 99, 99, 78, 95, 96, 97, 99, 99, 71, 92, 94, 77, 94, 96, 65, 90, 93, 85, 96, 97, 53, 86, 89, 99, 99, 99, 92, 98, 99, 72, 93, 95, 86, 97, 98, 96, 99, 99, 98, 99, 99, 65, 90, 93, 85, 96, 98, 57, 87, 91, 71, 92, 94, 87, 97, 98, 88, 98, 98, 83, 96, 97, 57, 87, 90, 71, 92, 94, 99, 99, 99, 74, 93, 95, 52, 86, 89, 72, 93, 95, 95, 99, 99, 84, 96, 97, 97, 99, 99, 89, 98, 98, 49, 84, 88, 51, 85, 89, 92, 98, 99, 90, 98, 99, 79, 95, 96, 42, 81, 86, 96, 99, 99, 93, 99, 99, 58, 87, 91, 84, 96, 97, 55, 86, 90, 95, 99, 99, 82, 96, 97, 90, 98, 99, 91, 98, 99, 86, 97, 98, 86, 97, 98, 89, 98, 98, 53, 86, 89, 71, 92, 94, 71, 92, 94, 92, 98, 99, 80, 95, 96, 67, 91, 93, 66, 90, 93, 90, 98, 99, 68, 91, 94, 71, 92, 94, 97, 99, 99, 59, 88, 91, 86, 97, 98, 84, 96, 97, 86, 97, 98, 81, 95, 97, 77, 94, 96, 84, 96, 97, 59, 88, 91, 77, 94, 96, 87, 97, 98, 87, 97, 98, 65, 90, 93, 89, 98, 99, 94, 99, 99, 99, 99, 99, 58, 87, 91, 52, 86, 89, 97, 99, 99, 90, 98, 99, 96, 99, 99, 97, 99, 99, 55, 86, 90, 99, 99, 99, 36, 78, 83, 98, 99, 99, 60, 88, 91, 81, 95, 97, 89, 98, 98, 90, 98, 99, 69, 92, 94, 91, 98, 99, 76, 94, 96, 83, 96, 97, 84, 96, 97, 55, 86, 90, 81, 95, 97, 63, 89, 92, 71, 92, 94, 99, 99, 99, 68, 91, 94, 94, 99, 99, 54, 86, 90, 99, 99, 99, 90, 98, 99, 98, 99, 99, 85, 96, 97, 64, 90, 93, 91, 98, 99, 96, 99, 99, 90, 98, 99, 65, 90, 93, 97, 99, 99, 94, 99, 99, 99, 99, 99, 73, 93, 95, 87, 97, 98, 91, 98, 99, 72, 92, 95, 90, 98, 99, 71, 92, 94, 65, 90, 93, 94, 99, 99, 39, 79, 85, 96, 99, 99, 92, 98, 99, 95, 99, 99, 90, 98, 99, 85, 96, 97, 82, 96, 97, 61, 88, 92, 57, 87, 90, 94, 99, 99, 77, 94, 96, 97, 99, 99, 86, 97, 98, 90, 98, 99, 91, 98, 99, 84, 96, 97, 71, 92, 94, 99, 99, 99, 58, 87, 91, 71, 92, 94, 95, 99, 99, 48, 84, 87, 83, 96, 97, 10, 58, 67, 95, 99, 99, 82, 96, 97, 92, 98, 99, 91, 98, 99, 79, 95, 96, 52, 85, 89, 65, 90, 93, 71, 92, 95, 81, 95, 97, 51, 85, 89, 84, 96, 97, 58, 87, 91, 63, 89, 92, 94, 99, 99, 68, 91, 94, 99, 99, 99, 90, 98, 99, 94, 99, 99, 83, 96, 97, 71, 92, 94, 98, 99, 99, 83, 96, 97, 48, 84, 88, 94, 99, 99, 74, 93, 95, 79, 95, 96, 99, 99, 99, 85, 96, 97, 73, 93, 95, 99, 99, 99, 58, 87, 91, 83, 96, 97, 99, 99, 99, 94, 99, 99, 45, 82, 86, 80, 95, 96, 98, 99, 99, 92, 98, 99, 86, 97, 98, 99, 99, 99, 87, 97, 98, 84, 96, 97, 93, 99, 99, 80, 95, 96, 69, 92, 94, 94, 99, 99, 77, 94, 96, 77, 94, 96, 46, 83, 87, 68, 91, 93, 61, 89, 92, 84, 96, 97, 95, 99, 99, 24, 71, 77, 97, 99, 99, 85, 96, 98, 99, 99, 99, 47, 83, 87, 42, 81, 86, 72, 92, 95, 89, 98, 98, 93, 99, 99, 93, 99, 99, 97, 99, 99, 82, 96, 97, 97, 99, 99, 91, 98, 99, 77, 94, 96, 71, 92, 94, 99, 99, 99, 86, 97, 98, 76, 94, 96, 61, 88, 92, 85, 96, 97, 40, 80, 85, 93, 99, 99, 99, 99, 99, 84, 96, 97, 93, 99, 99, 64, 89, 92, 94, 99, 99, 91, 98, 99, 67, 91, 93, 72, 93, 95, 81, 95, 97, 73, 93, 95, 86, 97, 98, 99, 99, 99, 99, 99, 99, 83, 96, 97, 98, 99, 99, 99, 99, 99, 41, 81, 86, 60, 88, 91, 96, 99, 99, 99, 99, 99, 48, 83, 87, 92, 98, 99, 95, 99, 99, 74, 93, 95, 98, 99, 99, 93, 99, 99, 38, 79, 84, 77, 94, 96, 82, 96, 97, 87, 97, 98, 68, 91, 94, 97, 99, 99, 41, 81, 86, 60, 88, 91, 78, 94, 96, 99, 99, 99, 73, 93, 95, 53, 86, 89, 82, 96, 97, 89, 98, 98, 97, 99, 99, 69, 92, 94, 57, 87, 90, 98, 99, 99, 69, 91, 94, 99, 99, 99, 41, 81, 86, 78, 94, 96, 81, 95, 97, 91, 98, 99, 50, 85, 88, 93, 99, 99, 63, 89, 92, 33, 77, 82, 67, 91, 93, 83, 96, 97, 99, 99, 99, 85, 96, 98, 86, 97, 98, 95, 99, 99, 86, 97, 98, 89, 98, 98, 96, 99, 99, 86, 97, 98, 93, 99, 99, 82, 96, 97, 99, 99, 99, 54, 86, 89, 65, 90, 93, 81, 95, 97, 61, 88, 92, 43, 81, 86, 97, 99, 99, 77, 94, 96, 20, 67, 75, 31, 76, 81, 79, 95, 96, 97, 99, 99, 80, 95, 96, 99, 99, 99, 95, 99, 99, 44, 82, 86, 90, 98, 99, 77, 94, 96, 92, 98, 99, 46, 83, 87, 71, 92, 94, 90, 98, 99, 67, 91, 93, 98, 99, 99, 88, 97, 98, 94, 99, 99, 74, 93, 95, 98, 99, 99, 87, 97, 98, 92, 98, 99, 83, 96, 97, 89, 98, 98, 73, 93, 95, 99, 99, 99, 77, 94, 96, 94, 99, 99, 92, 99, 99, 66, 90, 93, 44, 82, 86, 91, 98, 99, 63, 89, 92, 98, 99, 99, 77, 94, 96, 70, 92, 94, 96, 99, 99, 86, 97, 98, 56, 86, 90, 98, 99, 99, 99, 99, 99, 79, 95, 96, 86, 97, 98, 66, 90, 93, 51, 85, 89, 91, 98, 99, 88, 97, 98, 84, 96, 97, 80, 95, 96, 34, 77, 82, 74, 93, 95, 88, 97, 98, 93, 99, 99, 47, 83, 87, 97, 99, 99, 72, 92, 95, 51, 85, 88, 75, 94, 95, 86, 97, 98, 95, 99, 99, 89, 98, 98, 73, 93, 95, 76, 94, 96, 50, 85, 88, 59, 88, 91, 65, 90, 93, 53, 86, 89, 92, 98, 99, 89, 98, 98, 88, 97, 98, 81, 95, 97, 75, 94, 95, 92, 98, 99, 99, 99, 99, 87, 97, 98, 91, 98, 99, 48, 83, 87, 57, 87, 90, 60, 88, 91, 76, 94, 96, 90, 98, 99, 81, 95, 97, 65, 90, 93, 98, 99, 99, 66, 90, 93, 99, 99, 99, 65, 90, 93, 65, 90, 93, 99, 99, 99, 77, 94, 96, 83, 96, 97, 96, 99, 99, 96, 99, 99, 68, 91, 94, 81, 95, 97, 34, 77, 83, 35, 77, 83, 28, 73, 80, 97, 99, 99, 48, 84, 88, 93, 99, 99, 86, 97, 98, 69, 92, 94, 95, 99, 99, 81, 95, 97, 95, 99, 99, 98, 99, 99, 97, 99, 99, 89, 98, 98, 99, 99, 99, 86, 97, 98, 75, 94, 95, 87, 97, 98, 98, 99, 99, 99, 99, 99, 92, 98, 99, 96, 99, 99, 42, 81, 86, 96, 99, 99, 65, 90, 93, 80, 95, 96, 81, 95, 97, 83, 96, 97, 39, 80, 85, 89, 98, 98, 67, 91, 93, 81, 95, 97, 87, 97, 98, 44, 82, 86, 79, 95, 96, 97, 99, 99, 87, 97, 98, 67, 91, 93, 74, 93, 95, 52, 86, 89, 93, 99, 99, 69, 92, 94, 86, 97, 98, 80, 95, 97, 44, 82, 86, 36, 78, 83, 60, 88, 91, 89, 98, 98, 57, 87, 90, 77, 94, 96, 86, 97, 98, 99, 99, 99, 68, 91, 94, 83, 96, 97, 67, 91, 93]);
precedence  = array2d(JOBS,MACHINES,[22, 19, 2, 24, 10, 6, 21, 12, 11, 17, 13, 23, 18, 5, 3, 1, 8, 14, 9, 20, 7, 4, 0, 16, 15, 2, 18, 3, 6, 0, 19, 8, 24, 20, 9, 17, 16, 1, 12, 15, 10, 4, 22, 5, 11, 21, 7, 23, 13, 14, 24, 11, 14, 22, 5, 20, 13, 19, 7, 0, 10, 17, 15, 6, 23, 9, 18, 16, 8, 1, 12, 21, 3, 4, 2, 7, 10, 17, 6, 12, 19, 4, 5, 23, 14, 11, 9, 24, 15, 3, 0, 13, 2, 18, 16, 1, 8, 21, 22, 20, 7, 9, 10, 20, 19, 2, 23, 8, 24, 11, 13, 21, 0, 12, 3, 16, 6, 17, 1, 18, 15, 4, 22, 5, 14, 17, 16, 4, 20, 22, 19, 24, 6, 23, 3, 13, 11, 21, 14, 5, 1, 7, 12, 0, 10, 8, 18, 15, 9, 2, 4, 0, 14, 23, 11, 22, 24, 16, 5, 21, 13, 17, 8, 6, 3, 1, 19, 2, 12, 10, 15, 7, 20, 9, 18, 9, 22, 12, 11, 21, 8, 24, 2, 16, 17, 23, 4, 13, 19, 14, 5, 10, 7, 3, 18, 0, 20, 1, 6, 15, 3, 12, 8, 19, 0, 21, 18, 11, 6, 7, 22, 5, 4, 2, 10, 20, 24, 16, 1, 9, 15, 13, 14, 17, 23, 11, 17, 6, 4, 9, 23, 22, 1, 7, 8, 0, 3, 2, 13, 5, 16, 24, 14, 10, 15, 18, 19, 20, 12, 21, 7, 11, 8, 5, 24, 3, 23, 21, 10, 0, 6, 17, 19, 1, 2, 12, 13, 20, 15, 14, 16, 22, 4, 18, 9, 4, 6, 5, 15, 13, 2, 11, 18, 19, 12, 1, 24, 20, 8, 14, 23, 0, 21, 16, 3, 10, 22, 9, 7, 17, 4, 18, 3, 13, 9, 5, 21, 6, 1, 17, 23, 19, 10, 24, 11, 15, 16, 0, 22, 7, 8, 2, 14, 20, 12, 17, 8, 14, 2, 19, 22, 10, 20, 9, 15, 18, 16, 24, 13, 12, 11, 7, 23, 4, 21, 6, 0, 1, 5, 3, 17, 5, 21, 18, 22, 16, 3, 15, 24, 0, 4, 19, 13, 7, 6, 14, 20, 2, 1, 11, 8, 9, 12, 10, 23, 11, 3, 17, 19, 14, 9, 0, 23, 24, 21, 12, 16, 7, 5, 18, 22, 1, 10, 8, 20, 13, 4, 2, 6, 15, 24, 8, 15, 0, 9, 16, 7, 23, 2, 6, 1, 19, 17, 21, 11, 18, 20, 14, 3, 13, 10, 12, 22, 5, 4, 21, 14, 6, 17, 20, 2, 9, 7, 8, 24, 15, 18, 13, 22, 4, 23, 10, 0, 1, 11, 16, 19, 5, 12, 3, 13, 1, 4, 20, 14, 21, 8, 17, 3, 5, 16, 12, 15, 6, 0, 2, 18, 7, 11, 23, 9, 10, 22, 19, 24, 22, 6, 0, 23, 16, 11, 13, 15, 3, 4, 14, 17, 8, 18, 1, 2, 12, 24, 10, 21, 7, 5, 9, 19, 20, 17, 6, 4, 11, 7, 20, 18, 23, 22, 9, 0, 13, 15, 5, 19, 3, 10, 2, 1, 12, 24, 21, 16, 8, 14, 20, 3, 6, 16, 4, 19, 7, 5, 12, 10, 8, 9, 13, 22, 21, 0, 14, 24, 1, 18, 2, 11, 17, 23, 15, 15, 20, 1, 9, 2, 14, 5, 7, 8, 0, 17, 21, 6, 4, 18, 10, 19, 22, 24, 23, 13, 3, 16, 12, 11, 9, 24, 7, 0, 12, 13, 15, 20, 19, 4, 6, 3, 23, 2, 16, 8, 22, 14, 21, 18, 11, 5, 17, 10, 1, 13, 1, 14, 5, 23, 7, 20, 0, 3, 24, 2, 22, 16, 10, 6, 17, 12, 19, 18, 9, 15, 8, 11, 4, 21, 8, 19, 11, 2, 12, 17, 18, 14, 23, 9, 15, 20, 6, 13, 4, 0, 3, 1, 5, 7, 24, 10, 22, 16, 21, 16, 19, 12, 3, 9, 4, 13, 14, 23, 6, 21, 15, 1, 20, 2, 5, 7, 8, 10, 22, 18, 11, 17, 24, 0, 8, 15, 21, 5, 7, 14, 12, 0, 1, 3, 10, 20, 11, 19, 24, 4, 9, 23, 13, 16, 22, 17, 2, 18, 6, 11, 2, 1, 16, 12, 4, 18, 0, 22, 5, 9, 14, 15, 17, 19, 7, 24, 21, 23, 6, 13, 10, 3, 20, 8, 19, 4, 20, 14, 3, 21, 5, 17, 7, 18, 12, 6, 9, 24, 15, 11, 22, 1, 0, 8, 10, 23, 16, 13, 2, 17, 19, 8, 12, 24, 11, 9, 1, 7, 4, 5, 22, 0, 13, 20, 16, 6, 14, 3, 15, 23, 21, 10, 18, 2, 11, 17, 9, 23, 2, 21, 7, 22, 19, 3, 6, 15, 12, 8, 5, 13, 14, 4, 16, 1, 18, 0, 10, 24, 20, 21, 5, 14, 4, 22, 7, 19, 11, 1, 3, 13, 17, 9, 12, 0, 6, 15, 20, 24, 10, 8, 16, 18, 23, 2, 5, 3, 14, 18, 7, 10, 1, 20, 17, 15, 16, 12, 23, 21, 2, 6, 8, 11, 0, 22, 9, 13, 19, 4, 24, 5, 19, 15, 17, 2, 11, 0, 10, 18, 12, 13, 23, 16, 21, 1, 20, 14, 3, 8, 6, 22, 7, 4, 9, 24, 23, 18, 12, 15, 4, 21, 7, 14, 17, 19, 13, 8, 3, 9, 24, 5, 0, 16, 22, 11, 10, 6, 20, 2, 1, 19, 16, 17, 23, 8, 13, 24, 20, 22, 11, 1, 18, 21, 6, 12, 4, 5, 0, 14, 15, 10, 2, 7, 9, 3, 21, 10, 5, 19, 15, 0, 2, 3, 17, 6, 4, 11, 13, 1, 22, 18, 9, 8, 14, 16, 23, 7, 20, 12, 24, 7, 24, 15, 5, 20, 21, 3, 23, 16, 13, 6, 9, 2, 22, 0, 18, 10, 19, 11, 12, 14, 1, 4, 17, 8, 5, 19, 6, 13, 8, 24, 20, 9, 10, 12, 23, 22, 2, 18, 3, 17, 1, 16, 0, 4, 11, 21, 15, 7, 14, 22, 1, 23, 0, 15, 20, 9, 2, 8, 5, 14, 6, 11, 12, 16, 24, 7, 17, 3, 19, 10, 21, 18, 4, 13, 11, 1, 8, 4, 2, 0, 10, 17, 3, 21, 20, 14, 9, 5, 15, 12, 22, 13, 23, 18, 16, 19, 7, 24, 6, 17, 19, 21, 5, 15, 2, 4, 14, 6, 20, 1, 7, 8, 24, 16, 10, 0, 13, 9, 11, 12, 23, 18, 3, 22, 24, 10, 9, 19, 5, 18, 23, 7, 6, 21, 3, 15, 8, 16, 4, 0, 2, 20, 13, 1, 17, 11, 14, 12, 22, 16, 23, 14, 3, 24, 20, 1, 10, 18, 0, 13, 12, 22, 8, 9, 11, 21, 2, 6, 17, 7, 15, 4, 19, 5, 15, 0, 2, 24, 5, 1, 12, 6, 22, 7, 13, 11, 17, 19, 16, 4, 3, 9, 14, 21, 10, 18, 20, 8, 23, 5, 22, 20, 16, 4, 3, 8, 18, 13, 9, 10, 21, 1, 24, 14, 6, 2, 11, 12, 7, 15, 0, 17, 23, 19, 10, 23, 15, 16, 1, 6, 0, 22, 3, 20, 14, 7, 21, 24, 19, 2, 17, 4, 13, 5, 8, 18, 9, 12, 11, 7, 13, 22, 17, 16, 24, 20, 6, 23, 3, 14, 1, 21, 9, 4, 2, 19, 18, 8, 11, 0, 15, 12, 10, 5, 18, 13, 14, 4, 16, 0, 7, 1, 11, 12, 2, 20, 22, 8, 17, 24, 21, 23, 3, 10, 6, 9, 15, 5, 19]);
releaseDate = [60, 60, 40, 20, 20, 100, 40, 100, 40, 30, 10, 0, 60, 60, 0, 90, 80, 90, 50, 20, 90, 80, 40, 40, 0, 100, 20, 50, 70, 70, 10, 30, 20, 0, 30, 20, 20, 100, 20, 30, 50, 100, 10, 70, 100, 50, 30, 100, 100, 90];
dueDate     = [233, 260, 163, 266, 239, 288, 207, 288, 200, 297, 247, 148, 221, 256, 234, 321, 297, 290, 259, 181, 310, 365, 335, 309, 224, 248, 183, 171, 284, 359, 153, 221, 229, 245, 234, 253, 242, 296, 239, 195, 310, 302, 222, 282, 360, 263, 220, 399, 283, 334];